NAME          DCAP_2_4_3_200_SS66
ROWS
 N  OBJ
 L  CON1
 L  CON2
 L  CON3
 L  CON4
 L  CON5
 L  CON6
 L  CON7
 L  CON8
 L  CON9
 L  CON10
 L  CON11
 L  CON12
 E  CON13
 E  CON14
 E  CON15
 E  CON16
 E  CON17
 E  CON18
 E  CON19
 E  CON20
 E  CON21
 E  CON22
 E  CON23
 E  CON24
COLUMNS
    x[1,1]    OBJ       6.180167      CON1      1.000000    
    x[1,1]    CON7      -1.000000     CON8      -1.000000   
    x[1,1]    CON9      -1.000000   
    x[1,2]    OBJ       6.563535      CON2      1.000000    
    x[1,2]    CON8      -1.000000     CON9      -1.000000   
    x[1,3]    OBJ       7.443064      CON3      1.000000    
    x[1,3]    CON9      -1.000000   
    x[2,1]    OBJ       6.732585      CON4      1.000000    
    x[2,1]    CON10     -1.000000     CON11     -1.000000   
    x[2,1]    CON12     -1.000000   
    x[2,2]    OBJ       5.039546      CON5      1.000000    
    x[2,2]    CON11     -1.000000     CON12     -1.000000   
    x[2,3]    OBJ       6.054841      CON6      1.000000    
    x[2,3]    CON12     -1.000000   
    MARKER    'MARKER'                'INTORG'
    u[1,1]    OBJ       48.076654     CON1      -1.000000   
    u[1,2]    OBJ       20.066487     CON2      -1.000000   
    u[1,3]    OBJ       32.230043     CON3      -1.000000   
    u[2,1]    OBJ       49.996186     CON4      -1.000000   
    u[2,2]    OBJ       49.466655     CON5      -1.000000   
    u[2,3]    OBJ       27.484319     CON6      -1.000000   
    y[1,1,1]  OBJ       6.468164      CON7      0.793418    
    y[1,1,1]  CON13     1.000000    
    y[1,1,2]  OBJ       9.303110      CON8      0.779491    
    y[1,1,2]  CON14     1.000000    
    y[1,1,3]  OBJ       9.823739      CON9      0.978821    
    y[1,1,3]  CON15     1.000000    
    y[1,2,1]  OBJ       7.951916      CON7      1.310862    
    y[1,2,1]  CON16     1.000000    
    y[1,2,2]  OBJ       7.898218      CON8      0.601888    
    y[1,2,2]  CON17     1.000000    
    y[1,2,3]  OBJ       8.185443      CON9      1.346328    
    y[1,2,3]  CON18     1.000000    
    y[1,3,1]  OBJ       9.658855      CON7      1.135988    
    y[1,3,1]  CON19     1.000000    
    y[1,3,2]  OBJ       5.936067      CON8      0.855720    
    y[1,3,2]  CON20     1.000000    
    y[1,3,3]  OBJ       6.199799      CON9      0.992202    
    y[1,3,3]  CON21     1.000000    
    y[1,4,1]  OBJ       7.413380      CON7      1.171204    
    y[1,4,1]  CON22     1.000000    
    y[1,4,2]  OBJ       7.355901      CON8      1.012185    
    y[1,4,2]  CON23     1.000000    
    y[1,4,3]  OBJ       6.131691      CON9      0.902804    
    y[1,4,3]  CON24     1.000000    
    y[2,1,1]  OBJ       7.962343      CON10     0.793418    
    y[2,1,1]  CON13     1.000000    
    y[2,1,2]  OBJ       5.925312      CON11     0.779491    
    y[2,1,2]  CON14     1.000000    
    y[2,1,3]  OBJ       6.810286      CON12     0.978821    
    y[2,1,3]  CON15     1.000000    
    y[2,2,1]  OBJ       5.014424      CON10     1.310862    
    y[2,2,1]  CON16     1.000000    
    y[2,2,2]  OBJ       7.960884      CON11     0.601888    
    y[2,2,2]  CON17     1.000000    
    y[2,2,3]  OBJ       6.531509      CON12     1.346328    
    y[2,2,3]  CON18     1.000000    
    y[2,3,1]  OBJ       5.152739      CON10     1.135988    
    y[2,3,1]  CON19     1.000000    
    y[2,3,2]  OBJ       9.136185      CON11     0.855720    
    y[2,3,2]  CON20     1.000000    
    y[2,3,3]  OBJ       6.884477      CON12     0.992202    
    y[2,3,3]  CON21     1.000000    
    y[2,4,1]  OBJ       9.129682      CON10     1.171204    
    y[2,4,1]  CON22     1.000000    
    y[2,4,2]  OBJ       7.748446      CON11     1.012185    
    y[2,4,2]  CON23     1.000000    
    y[2,4,3]  OBJ       7.121276      CON12     0.902804    
    y[2,4,3]  CON24     1.000000    
    z[1,1]    OBJ       855.410302    CON13     1.000000    
    z[1,2]    OBJ       563.174913    CON14     1.000000    
    z[1,3]    OBJ       859.529256    CON15     1.000000    
    z[2,1]    OBJ       932.132712    CON16     1.000000    
    z[2,2]    OBJ       989.958801    CON17     1.000000    
    z[2,3]    OBJ       941.991304    CON18     1.000000    
    z[3,1]    OBJ       877.417785    CON19     1.000000    
    z[3,2]    OBJ       993.096102    CON20     1.000000    
    z[3,3]    OBJ       750.049212    CON21     1.000000    
    z[4,1]    OBJ       852.755432    CON22     1.000000    
    z[4,2]    OBJ       822.280729    CON23     1.000000    
    z[4,3]    OBJ       672.196932    CON24     1.000000    
    MARKER    'MARKER'                 'INTEND'
RHS
    RHS       CON1      -0.000000     CON2      -0.000000   
    RHS       CON3      -0.000000     CON4      -0.000000   
    RHS       CON5      -0.000000     CON6      -0.000000   
    RHS       CON7      -0.000000     CON8      -0.000000   
    RHS       CON9      -0.000000     CON10     -0.000000   
    RHS       CON11     -0.000000     CON12     -0.000000   
    RHS       CON13     1.000000      CON14     1.000000    
    RHS       CON15     1.000000      CON16     1.000000    
    RHS       CON17     1.000000      CON18     1.000000    
    RHS       CON19     1.000000      CON20     1.000000    
    RHS       CON21     1.000000      CON22     1.000000    
    RHS       CON23     1.000000      CON24     1.000000    
BOUNDS
 BV BOUND     u[1,1]  
 BV BOUND     u[1,2]  
 BV BOUND     u[1,3]  
 BV BOUND     u[2,1]  
 BV BOUND     u[2,2]  
 BV BOUND     u[2,3]  
 BV BOUND     y[1,1,1]
 BV BOUND     y[1,1,2]
 BV BOUND     y[1,1,3]
 BV BOUND     y[1,2,1]
 BV BOUND     y[1,2,2]
 BV BOUND     y[1,2,3]
 BV BOUND     y[1,3,1]
 BV BOUND     y[1,3,2]
 BV BOUND     y[1,3,3]
 BV BOUND     y[1,4,1]
 BV BOUND     y[1,4,2]
 BV BOUND     y[1,4,3]
 BV BOUND     y[2,1,1]
 BV BOUND     y[2,1,2]
 BV BOUND     y[2,1,3]
 BV BOUND     y[2,2,1]
 BV BOUND     y[2,2,2]
 BV BOUND     y[2,2,3]
 BV BOUND     y[2,3,1]
 BV BOUND     y[2,3,2]
 BV BOUND     y[2,3,3]
 BV BOUND     y[2,4,1]
 BV BOUND     y[2,4,2]
 BV BOUND     y[2,4,3]
 BV BOUND     z[1,1]  
 BV BOUND     z[1,2]  
 BV BOUND     z[1,3]  
 BV BOUND     z[2,1]  
 BV BOUND     z[2,2]  
 BV BOUND     z[2,3]  
 BV BOUND     z[3,1]  
 BV BOUND     z[3,2]  
 BV BOUND     z[3,3]  
 BV BOUND     z[4,1]  
 BV BOUND     z[4,2]  
 BV BOUND     z[4,3]  
ENDATA
